%pal nprocs 6 end
%maxcore 1000
! b3lyp TIGHTSCF nopop D3BJ
! cc-pvdz def2/J RIJCOSX
! Opt

%geom
maxiter 60
TolE 1e-4
TolRMSG 2e-3
TolMaxG 3e-3
TolRMSD 2e-2
TolMaxD 3e-2
end

*xyz 0 1
C 5.2546 -1.1978 0.0038
N 3.9942 -1.4688 0.0006
C 3.1376 -0.3852 -0.0024
C 1.7886 -0.534 -0.0061
N 1.2894 -1.8257 -0.0072
N 0.8592 0.4773 -0.0079
C 1.1895 1.7199 -0.0073
H 5.6744 -0.1765 0.0038
H 5.9831 -2.0246 0.0054
H 3.5832 0.6019 -0.0064
H 2.0175 -2.4747 0.2885
H 0.4469 -1.8629 0.5539
H 2.2132 2.1236 -0.0062
H 0.3865 2.4751 -0.0097
*

