%pal nprocs 6 end
%maxcore 1000
! b3lyp TIGHTSCF nopop D3BJ
! cc-pvdz def2/J RIJCOSX
! Opt

%geom
maxiter 60
TolE 1e-4
TolRMSG 2e-3
TolMaxG 3e-3
TolRMSD 2e-2
TolMaxD 3e-2
end

*xyz 0 1
N 5.0051 0.7097 -0.1883
C 2.9628 -0.6659 0.0037
C 1.6391 -0.8354 0.096
N 0.9759 -2.0355 0.1913
N 3.0545 1.8031 -0.1126
C 3.6476 0.6538 -0.0991
H 5.443 -0.0106 -0.7478
H 5.3007 1.6434 -0.4578
H 3.622 -1.5267 0.0099
H 0.9484 0.0032 0.0879
H 1.5581 -2.8145 0.4912
H 0.1038 -1.9824 0.715
H 2.0417 1.7054 -0.0376
*

